(set-info :smt-lib-version 2.6)
(set-logic QF_BV)
(set-info :source |
Benchmarks generated by the Calysto static checker.  Provided by Domagoj
Babic.  See http://www.cs.ubc.ca/~babic/index_benchmarks.htm.  Translated using
Spear Sf2Smt translator.

|)
(set-info :category "industrial")
(set-info :status sat)
(declare-fun v47995532 () (_ BitVec 32))
(declare-fun o81304044 () (_ BitVec 1))
(declare-fun v43415208 () (_ BitVec 32))
(declare-fun o30427348 () (_ BitVec 1))
(declare-fun v39887212 () (_ BitVec 32))
(declare-fun o24791492 () (_ BitVec 1))
(declare-fun o34343164 () (_ BitVec 1))
(declare-fun o52626488 () (_ BitVec 1))
(declare-fun o37900020 () (_ BitVec 1))
(declare-fun o97676344 () (_ BitVec 1))
(declare-fun o56140896 () (_ BitVec 1))
(declare-fun o68997108 () (_ BitVec 1))
(declare-fun v57174964 () (_ BitVec 32))
(declare-fun o37166340 () (_ BitVec 1))
(declare-fun o37910808 () (_ BitVec 1))
(declare-fun o25602196 () (_ BitVec 1))
(declare-fun o37952328 () (_ BitVec 32))
(declare-fun o18995972 () (_ BitVec 64))
(declare-fun v35755812 () (_ BitVec 64))
(declare-fun o34963368 () (_ BitVec 1))
(declare-fun o44061484 () (_ BitVec 64))
(declare-fun o49614352 () (_ BitVec 64))
(declare-fun o97628840 () (_ BitVec 64))
(declare-fun o68605576 () (_ BitVec 64))
(declare-fun v68367860 () (_ BitVec 8))
(declare-fun o57667712 () (_ BitVec 64))
(declare-fun v55784016 () (_ BitVec 64))
(declare-fun o38303356 () (_ BitVec 64))
(declare-fun v38040596 () (_ BitVec 64))
(declare-fun o44677720 () (_ BitVec 64))
(declare-fun o109068332 () (_ BitVec 64))
(declare-fun o35699772 () (_ BitVec 1))
(declare-fun o91383816 () (_ BitVec 1))
(declare-fun o69800464 () (_ BitVec 64))
(declare-fun o70799940 () (_ BitVec 64))
(declare-fun o93057300 () (_ BitVec 1))
(declare-fun vf42768156 () (_ BitVec 1))
(declare-fun o53502712 () (_ BitVec 1))
(declare-fun v58983568 () (_ BitVec 1))
(declare-fun v15668420 () (_ BitVec 32))
(declare-fun o63253400 () (_ BitVec 32))
(declare-fun v16385160 () (_ BitVec 32))
(declare-fun o29509684 () (_ BitVec 1))
(declare-fun o41148504 () (_ BitVec 1))
(declare-fun o28191868 () (_ BitVec 1))
(declare-fun o53275916 () (_ BitVec 1))
(declare-fun o83178388 () (_ BitVec 1))
(declare-fun o19623012 () (_ BitVec 1))
(declare-fun o59204960 () (_ BitVec 1))
(declare-fun o29015748 () (_ BitVec 1))
(declare-fun o70110784 () (_ BitVec 1))
(declare-fun o91831552 () (_ BitVec 1))
(declare-fun o74640188 () (_ BitVec 1))
(declare-fun o38386696 () (_ BitVec 1))
(declare-fun o46486804 () (_ BitVec 1))
(declare-fun o42222132 () (_ BitVec 1))
(declare-fun o28178448 () (_ BitVec 64))
(declare-fun o94734656 () (_ BitVec 64))
(declare-fun o34992600 () (_ BitVec 1))
(declare-fun o70798872 () (_ BitVec 1))
(declare-fun o44664988 () (_ BitVec 1))
(declare-fun o22448428 () (_ BitVec 1))
(declare-fun o69555080 () (_ BitVec 1))
(declare-fun o24281100 () (_ BitVec 1))
(declare-fun v39543380 () (_ BitVec 8))
(declare-fun o82091336 () (_ BitVec 64))
(declare-fun o39489328 () (_ BitVec 1))
(declare-fun o43274072 () (_ BitVec 1))
(declare-fun v25173808 () (_ BitVec 8))
(declare-fun o67718728 () (_ BitVec 64))
(declare-fun o48133916 () (_ BitVec 1))
(declare-fun o20796288 () (_ BitVec 1))
(declare-fun v39363736 () (_ BitVec 8))
(declare-fun o99064132 () (_ BitVec 64))
(declare-fun o54128036 () (_ BitVec 64))
(declare-fun o96737932 () (_ BitVec 64))
(declare-fun o20334344 () (_ BitVec 1))
(declare-fun o65911408 () (_ BitVec 1))
(declare-fun v100986040 () (_ BitVec 8))
(declare-fun o46579472 () (_ BitVec 8))
(declare-fun o74526680 () (_ BitVec 64))
(declare-fun o51286864 () (_ BitVec 1))
(declare-fun o48068016 () (_ BitVec 1))
(declare-fun o38095336 () (_ BitVec 64))
(declare-fun o97799508 () (_ BitVec 64))
(declare-fun o26043704 () (_ BitVec 1))
(declare-fun o47294120 () (_ BitVec 1))
(declare-fun o80386116 () (_ BitVec 1))
(declare-fun o70509876 () (_ BitVec 1))
(declare-fun v35122004 () (_ BitVec 32))
(declare-fun o50003916 () (_ BitVec 1))
(declare-fun o29128568 () (_ BitVec 1))
(declare-fun o67727440 () (_ BitVec 1))
(declare-fun o54127852 () (_ BitVec 1))
(declare-fun Fresh__0 () (_ BitVec 1))
(declare-fun Fresh__1 () (_ BitVec 1))
(declare-fun Fresh__2 () (_ BitVec 1))
(declare-fun Fresh__3 () (_ BitVec 1))
(declare-fun Fresh__4 () (_ BitVec 1))
(declare-fun Fresh__5 () (_ BitVec 1))
(declare-fun Fresh__6 () (_ BitVec 1))
(declare-fun Fresh__7 () (_ BitVec 1))
(declare-fun Fresh__8 () (_ BitVec 1))
(declare-fun Fresh__9 () (_ BitVec 1))
(declare-fun Fresh__10 () (_ BitVec 1))
(declare-fun Fresh__11 () (_ BitVec 1))
(declare-fun Fresh__12 () (_ BitVec 1))
(declare-fun Fresh__13 () (_ BitVec 1))
(declare-fun Fresh__14 () (_ BitVec 1))
(declare-fun Fresh__15 () (_ BitVec 1))
(declare-fun Fresh__16 () (_ BitVec 1))
(declare-fun Fresh__17 () (_ BitVec 1))
(declare-fun Fresh__18 () (_ BitVec 1))
(declare-fun Fresh__19 () (_ BitVec 1))
(declare-fun Fresh__20 () (_ BitVec 1))
(declare-fun Fresh__21 () (_ BitVec 1))
(declare-fun Fresh__22 () (_ BitVec 1))
(declare-fun Fresh__23 () (_ BitVec 1))
(declare-fun Fresh__24 () (_ BitVec 1))
(declare-fun Fresh__25 () (_ BitVec 1))
(declare-fun Fresh__26 () (_ BitVec 1))
(declare-fun Fresh__27 () (_ BitVec 1))
(assert (= (= Fresh__0 (_ bv1 1)) (= ((_ extract 31 0) (_ bv0 64)) v47995532)))
(assert (= o81304044 Fresh__0))
(assert (= (= Fresh__1 (_ bv1 1)) (= v43415208 ((_ extract 31 0) (_ bv0 64)))))
(assert (= o30427348 Fresh__1))
(assert (= (= Fresh__2 (_ bv1 1)) (bvslt v39887212 ((_ extract 31 0) (_ bv0 64)))))
(assert (= o24791492 Fresh__2))
(assert (= o34343164 (bvand ((_ extract 0 0) (_ bv1 64)) o30427348)))
(assert (= (= Fresh__3 (_ bv1 1)) (bvsle ((_ extract 31 0) (_ bv0 64)) v39887212)))
(assert (= o52626488 Fresh__3))
(assert (= o37900020 (bvand o34343164 o52626488)))
(assert (= o97676344 (ite (= o24791492 (_ bv1 1)) o34343164 o37900020)))
(assert (= o56140896 (ite (= o30427348 (_ bv1 1)) o97676344 ((_ extract 0 0) (_ bv1 64)))))
(assert (= o68997108 (ite (= o81304044 (_ bv1 1)) o56140896 ((_ extract 0 0) (_ bv0 64)))))
(assert (= (= Fresh__4 (_ bv1 1)) (distinct ((_ extract 31 0) (_ bv0 64)) v57174964)))
(assert (= o37166340 Fresh__4))
(assert (= o37910808 (bvand o68997108 o37166340)))
(assert (= o25602196 (bvand ((_ extract 0 0) (_ bv1 64)) o37910808)))
(assert (= o37952328 (bvadd ((_ extract 31 0) (_ bv18446744073709551615 64)) v47995532)))
(assert (= o18995972 ((_ sign_extend 32) o37952328)))
(assert (= (= Fresh__5 (_ bv1 1)) (bvslt ((_ extract 63 0) (_ bv10 64)) v35755812)))
(assert (= o34963368 Fresh__5))
(assert (= o44061484 (bvadd v35755812 ((_ extract 63 0) (_ bv1 64)))))
(assert (= o49614352 (ite (= o34963368 (_ bv1 1)) o44061484 ((_ extract 63 0) (_ bv12 64)))))
(assert (= o97628840 (bvsub o18995972 o49614352)))
(assert (= o68605576 (bvadd o97628840 ((_ extract 63 0) (_ bv18446744073709551586 64)))))
(assert (= o57667712 ((_ sign_extend 56) v68367860)))
(assert (= o38303356 (bvadd o57667712 v55784016)))
(assert (= o44677720 (bvsdiv o38303356 v38040596)))
(assert (= o109068332 (bvmul o68605576 o44677720)))
(assert (= (= Fresh__6 (_ bv1 1)) (bvsle o109068332 o68605576)))
(assert (= o35699772 Fresh__6))
(assert (= (= Fresh__7 (_ bv1 1)) (distinct o68605576 ((_ extract 63 0) (_ bv0 64)))))
(assert (= o91383816 Fresh__7))
(assert (= o69800464 (bvmul ((_ extract 63 0) (_ bv100 64)) o38303356)))
(assert (= o70799940 (bvsdiv o69800464 v38040596)))
(assert (= (= Fresh__8 (_ bv1 1)) (bvslt o70799940 ((_ extract 63 0) (_ bv100 64)))))
(assert (= o93057300 Fresh__8))
(assert (= o53502712 (bvand vf42768156 ((_ extract 0 0) (_ bv1 64)))))
(assert (= o63253400 (ite (= v58983568 (_ bv1 1)) ((_ extract 31 0) (_ bv0 64)) v15668420)))
(assert (= (= Fresh__9 (_ bv1 1)) (= o63253400 v16385160)))
(assert (= o29509684 Fresh__9))
(assert (= o41148504 (bvand o53502712 o29509684)))
(assert (= o28191868 (bvand o41148504 ((_ extract 0 0) (_ bv1 64)))))
(assert (= (= Fresh__10 (_ bv1 1)) (bvslt ((_ extract 63 0) (_ bv0 64)) v38040596)))
(assert (= o53275916 Fresh__10))
(assert (= o83178388 (bvand o28191868 o53275916)))
(assert (= (= Fresh__11 (_ bv1 1)) (bvsle o70799940 ((_ extract 63 0) (_ bv100 64)))))
(assert (= o19623012 Fresh__11))
(assert (= o59204960 (bvand o83178388 o19623012)))
(assert (= (= Fresh__12 (_ bv1 1)) (bvsle ((_ extract 63 0) (_ bv100 64)) o70799940)))
(assert (= o29015748 Fresh__12))
(assert (= o70110784 (bvand o59204960 o29015748)))
(assert (= o91831552 (ite (= o93057300 (_ bv1 1)) o59204960 o70110784)))
(assert (= o74640188 (bvand o91383816 o91831552)))
(assert (= (= Fresh__13 (_ bv1 1)) (bvsle ((_ extract 63 0) (_ bv1 64)) v38040596)))
(assert (= o38386696 Fresh__13))
(assert (= o46486804 (bvand o74640188 o38386696)))
(assert (= o42222132 (bvand o35699772 o46486804)))
(assert (= o28178448 (bvsdiv v55784016 v38040596)))
(assert (= o94734656 (bvmul o68605576 o28178448)))
(assert (= (= Fresh__14 (_ bv1 1)) (bvsle o94734656 o109068332)))
(assert (= o34992600 Fresh__14))
(assert (= o70798872 (bvand o42222132 o34992600)))
(assert (= (= Fresh__15 (_ bv1 1)) (bvsle o94734656 ((_ extract 63 0) (_ bv0 64)))))
(assert (= o44664988 Fresh__15))
(assert (= o22448428 (bvand o70798872 o44664988)))
(assert (= (= Fresh__16 (_ bv1 1)) (bvsle o68605576 ((_ extract 63 0) (_ bv0 64)))))
(assert (= o69555080 Fresh__16))
(assert (= o24281100 (bvand o22448428 o69555080)))
(assert (= o82091336 ((_ sign_extend 56) v39543380)))
(assert (= (= Fresh__17 (_ bv1 1)) (distinct ((_ extract 63 0) (_ bv0 64)) o82091336)))
(assert (= o39489328 Fresh__17))
(assert (= o43274072 (bvand o24281100 o39489328)))
(assert (= o67718728 ((_ sign_extend 56) v25173808)))
(assert (= (= Fresh__18 (_ bv1 1)) (distinct o67718728 ((_ extract 63 0) (_ bv0 64)))))
(assert (= o48133916 Fresh__18))
(assert (= o20796288 (bvand o43274072 o48133916)))
(assert (= o99064132 ((_ sign_extend 56) v39363736)))
(assert (= o54128036 (bvsub ((_ extract 63 0) (_ bv0 64)) o99064132)))
(assert (= o96737932 (bvadd o54128036 o82091336)))
(assert (= (= Fresh__19 (_ bv1 1)) (bvsle ((_ extract 63 0) (_ bv0 64)) o96737932)))
(assert (= o20334344 Fresh__19))
(assert (= o65911408 (bvand ((_ extract 0 0) (_ bv1 64)) o20334344)))
(assert (= o46579472 (bvadd v100986040 v25173808)))
(assert (= o74526680 ((_ sign_extend 56) o46579472)))
(assert (= (= Fresh__20 (_ bv1 1)) (bvsle ((_ extract 63 0) (_ bv0 64)) o74526680)))
(assert (= o51286864 Fresh__20))
(assert (= o48068016 (bvand o65911408 o51286864)))
(assert (= o38095336 (bvmul o74526680 ((_ extract 63 0) (_ bv1000 64)))))
(assert (= o97799508 (bvsdiv o38095336 o96737932)))
(assert (= (= Fresh__21 (_ bv1 1)) (bvsle ((_ extract 63 0) (_ bv1024 64)) o97799508)))
(assert (= o26043704 Fresh__21))
(assert (= o47294120 (bvand o48068016 o26043704)))
(assert (= (= Fresh__22 (_ bv1 1)) (bvslt o97799508 ((_ extract 63 0) (_ bv1048576 64)))))
(assert (= o80386116 Fresh__22))
(assert (= o70509876 (bvand o47294120 o80386116)))
(assert (= (= Fresh__23 (_ bv1 1)) (distinct ((_ extract 31 0) (_ bv0 64)) v35122004)))
(assert (= o50003916 Fresh__23))
(assert (= (= Fresh__24 (_ bv1 1)) (=> (= o70509876 (_ bv1 1)) (= o50003916 (_ bv1 1)))))
(assert (= o29128568 Fresh__24))
(assert (= (= Fresh__25 (_ bv1 1)) (=> (= o20796288 (_ bv1 1)) (= o29128568 (_ bv1 1)))))
(assert (= o67727440 Fresh__25))
(assert (= (= Fresh__26 (_ bv1 1)) (=> (= o25602196 (_ bv1 1)) (= o67727440 (_ bv1 1)))))
(assert (= o54127852 Fresh__26))
(assert (= (= Fresh__27 (_ bv1 1)) (= ((_ extract 0 0) (_ bv0 64)) o54127852)))
(assert (= (_ bv1 1) Fresh__27))
(check-sat)
(exit)
